(declare-const term_to_project_onto2 Real)
(declare-const term_to_project_onto0 Real)
(declare-const term_to_project_onto Real)
(declare-const term_to_project_onto1 Real)
(assert (exists
         ((|i'?1| Int) (tr?2 Int) (tr?3 Int) (tr?4 Int) (tr?5 Int)
            (|k'?6| Int) (|j'?7| Int) (|__cost'?8| Int) (K?9 Int)
            (|k'?10| Int) (|j'?11| Int) (|__cost'?12| Int) (m?13 Int)
            (k?14 Int) (j?15 Int) (n?16 Int) (i?17 Int) (__cost?18 Int))
         (and (<= (- i?17) 0) (<= (+ (- n?16) i?17 1) 0) (<= (- __cost?18) 0)
                (<= (+ (- __cost?18) -1) 0)
                (= (+ (- |__cost'?8|) K?9 __cost?18 1) 0)
                (<= (+ (- j?15) |j'?7| K?9) 0)
                (or (and (= K?9 0) (= (+ (- |k'?6|) k?14) 0)
                           (= (+ j?15 (- |j'?7|)) 0)
                           (= (+ (- |__cost'?8|) __cost?18 1) 0))
                      (and (<= (+ (- K?9) 1) 0) (<= (- j?15) 0)
                             (<= (- __cost?18) 0) (<= (+ (- |k'?6|) 1) 0)
                             (<= (+ (- |j'?7|) -1) 0)
                             (<= (+ (- |__cost'?8|) 2) 0))) (<= (- K?9) 0)
                (<= (+ (- |__cost'?8|) 1) 0)
                (or (<= (+ |j'?7| 1) 0)
                      (and (<= (- |j'?7|) 0) (<= (+ (- tr?4) tr?5) 0)
                             (<= (+ (- tr?2) tr?3) 0)))
                (or (<= (+ (- m?13) |j'?7| 2) 0) (<= (+ m?13 (- |j'?7|)) 0))
                (= (+ |k'?10| (- |k'?6|)) 0) (= (+ |j'?11| (- |j'?7|) -1) 0)
                (= (+ |i'?1| (- i?17) -1) 0)
                (= (+ |__cost'?12| (- |__cost'?8|)) 0)
                (= term_to_project_onto2 (+ |__cost'?12| (- __cost?18)))
                (= term_to_project_onto1 (+ |i'?1| (- i?17)))
                (= term_to_project_onto0 (+ |j'?11| (- j?15)))
                (= term_to_project_onto (+ |k'?10| (- k?14))))))
(check-sat)
